(set-info :smt-lib-version 2.6)
(set-logic QF_LIA)
(set-info :source |
Generated by: Nicolas Amat, Bernard Berthomieu, Silvano Dal Zilio, Didier Le Botlan
Generated on: 2022-03-07
Generator: SMPT
Application: Reachability query on the instance Referendum-PT-010 from the Model Checking Contest 2021 using the SMPT model-checker
Target solver: z3
Publications: https://doi.org/10.1007/978-3-030-76983-3_9, http://mcc.lip6.fr/2021/results.php
|)
(set-info :license "https://creativecommons.org/licenses/by/4.0/")
(set-info :category "industrial")
(set-info :status unsat)

(declare-const voting_1 Int)
(assert (>= voting_1 0))
(declare-const voted_no_1 Int)
(assert (>= voted_no_1 0))
(declare-const voting_2 Int)
(assert (>= voting_2 0))
(declare-const voted_no_2 Int)
(assert (>= voted_no_2 0))
(declare-const voting_3 Int)
(assert (>= voting_3 0))
(declare-const voted_no_3 Int)
(assert (>= voted_no_3 0))
(declare-const voting_4 Int)
(assert (>= voting_4 0))
(declare-const voted_no_4 Int)
(assert (>= voted_no_4 0))
(declare-const voting_5 Int)
(assert (>= voting_5 0))
(declare-const voted_no_5 Int)
(assert (>= voted_no_5 0))
(declare-const voting_6 Int)
(assert (>= voting_6 0))
(declare-const voted_no_6 Int)
(assert (>= voted_no_6 0))
(declare-const voting_7 Int)
(assert (>= voting_7 0))
(declare-const voted_no_7 Int)
(assert (>= voted_no_7 0))
(declare-const voting_8 Int)
(assert (>= voting_8 0))
(declare-const voted_no_8 Int)
(assert (>= voted_no_8 0))
(declare-const voting_9 Int)
(assert (>= voting_9 0))
(declare-const voted_no_9 Int)
(assert (>= voted_no_9 0))
(declare-const voting_10 Int)
(assert (>= voting_10 0))
(declare-const voted_no_10 Int)
(assert (>= voted_no_10 0))
(declare-const ready Int)
(assert (>= ready 0))
(declare-const voted_yes_1 Int)
(assert (>= voted_yes_1 0))
(declare-const voted_yes_2 Int)
(assert (>= voted_yes_2 0))
(declare-const voted_yes_3 Int)
(assert (>= voted_yes_3 0))
(declare-const voted_yes_4 Int)
(assert (>= voted_yes_4 0))
(declare-const voted_yes_5 Int)
(assert (>= voted_yes_5 0))
(declare-const voted_yes_6 Int)
(assert (>= voted_yes_6 0))
(declare-const voted_yes_7 Int)
(assert (>= voted_yes_7 0))
(declare-const voted_yes_8 Int)
(assert (>= voted_yes_8 0))
(declare-const voted_yes_9 Int)
(assert (>= voted_yes_9 0))
(declare-const voted_yes_10 Int)
(assert (>= voted_yes_10 0))

(declare-const a1 Int)
(assert (>= a1 0))
(declare-const a2 Int)
(assert (>= a2 0))
(declare-const a3 Int)
(assert (>= a3 0))
(declare-const a4 Int)
(assert (>= a4 0))
(declare-const a5 Int)
(assert (>= a5 0))
(declare-const a6 Int)
(assert (>= a6 0))
(declare-const a7 Int)
(assert (>= a7 0))
(declare-const a8 Int)
(assert (>= a8 0))
(declare-const a9 Int)
(assert (>= a9 0))
(declare-const a10 Int)
(assert (>= a10 0))
(declare-const a11 Int)
(assert (>= a11 0))
(declare-const a12 Int)
(assert (>= a12 0))
(declare-const a13 Int)
(assert (>= a13 0))
(declare-const a14 Int)
(assert (>= a14 0))
(declare-const a15 Int)
(assert (>= a15 0))
(declare-const a16 Int)
(assert (>= a16 0))
(declare-const a17 Int)
(assert (>= a17 0))
(declare-const a18 Int)
(assert (>= a18 0))
(declare-const a19 Int)
(assert (>= a19 0))
(declare-const a20 Int)
(assert (>= a20 0))
(declare-const a21 Int)
(assert (>= a21 0))

(assert (= a1 (+ voted_no_1 voting_1)))
(assert (= a2 (+ voted_yes_1 a1)))
(assert (= a3 (+ voted_no_10 voting_10)))
(assert (= a4 (+ voted_yes_10 a3)))
(assert (= a5 (+ voted_no_2 voting_2)))
(assert (= a6 (+ voted_yes_2 a5)))
(assert (= a7 (+ voted_no_3 voting_3)))
(assert (= a8 (+ voted_yes_3 a7)))
(assert (= a9 (+ voted_no_4 voting_4)))
(assert (= a10 (+ voted_yes_4 a9)))
(assert (= a11 (+ voted_no_5 voting_5)))
(assert (= a12 (+ voted_yes_5 a11)))
(assert (= a13 (+ voted_no_6 voting_6)))
(assert (= a14 (+ voted_yes_6 a13)))
(assert (= a15 (+ voted_no_7 voting_7)))
(assert (= a16 (+ voted_yes_7 a15)))
(assert (= a17 (+ voted_no_8 voting_8)))
(assert (= a18 (+ voted_yes_8 a17)))
(assert (= a19 (+ voted_no_9 voting_9)))
(assert (= a20 (+ voted_yes_9 a19)))
(assert (= a4 a2))
(assert (= a6 a2))
(assert (= a8 a2))
(assert (= a10 a2))
(assert (= a12 a2))
(assert (= a14 a2))
(assert (= a16 a2))
(assert (= a18 a2))
(assert (= a20 a2))
(assert (= a21 (+ a2 ready)))
(assert (= a21 1))

(assert (not (or (not (and (<= ready (+ voted_yes_1 voted_yes_2 voted_yes_3 voted_yes_4 voted_yes_5 voted_yes_6 voted_yes_7 voted_yes_8 voted_yes_9 voted_yes_10))(<= 2 ready)))(<= (+ voting_1 voting_2 voting_3 voting_4 voting_5 voting_6 voting_7 voting_8 voting_9 voting_10) (+ voted_no_1 voted_no_2 voted_no_3 voted_no_4 voted_no_5 voted_no_6 voted_no_7 voted_no_8 voted_no_9 voted_no_10)))))

(check-sat)
(exit)
